proyfinal/src/viki/013/andrea/andrea-localstore/experimentInOfficeAgust.take6/worker_5/3f29faed-7ef7-49b1-b0d5-ec0a662275c6.als.cnf.out
Reading from standard input... Use '--help' for help.
============================[ Problem Statistics ]=============================
|                                                                             |
|  Number of variables:         87638                                         |
|  Number of clauses:          161767                                         |
|  Parse time:                   0.03 s                                       |
|                                                                             |
============================[ Search Statistics ]==============================
| Conflicts |          ORIGINAL         |          LEARNT          | Progress |
|           |    Vars  Clauses Literals |    Limit  Clauses Lit/Cl |          |
===============================================================================
|       100 |   62029   103912   259592 |    38101      100     27 | 29.221 % |
|       250 |   62029   103912   259592 |    41911      250     25 | 29.221 % |
|       475 |   62029   103912   259592 |    46102      475     52 | 29.221 % |
|       812 |   62029   103912   259592 |    50712      812     53 | 29.221 % |
|      1318 |   62029   103912   259592 |    55783     1318     60 | 29.221 % |
|      2077 |   62029   103912   259592 |    61362     2077     99 | 29.221 % |
|      3216 |   62029   103912   259592 |    67498     3216     93 | 29.221 % |
|      4924 |   62002   103725   259190 |    74248     3999     88 | 29.252 % |
|      7486 |   61949   103437   258561 |    81673     5610     79 | 29.313 % |
|     11330 |   61910   103291   258246 |    89840     9168     84 | 29.357 % |
===============================================================================
restarts              : 62
conflicts             : 14470          (6872 /sec)
decisions             : 42542          (0.00 % random) (20204 /sec)
propagations          : 22166693       (10527505 /sec)
conflict literals     : 1014379        (54.92 % deleted)
Memory used           : 30.09 MB
CPU time              : 2.1056 s

UNSATISFIABLE
